x = 21;
y = 12;
c = 82;
n = 34;

p = [34  58  27  60  12  68  52  50  75  16  69  34  46  42  49  39  57  80  84  90  88  26  47  86  90  17  83  27  72  17  57  79  48  37];
w = [7  10  10  6  6  8  5  9  7  9  9  6  5  1  4  8  5  5  4  4  2  3  4  1  7  6  3  5  2  1  8  8  3  8];
s = [7  7  6  10  1  12  12  10  6  8  12  2  8  1  3  8  6  8  9  6  11  10  2  9  11  1  10  8  3  12  5  5  1  2];
